tsp/input_files/dgm.tsp
NAME: d10
TYPE: TSP
COMMENT: 10-city problem
DIMENSION: 10
EDGE_WEIGHT_TYPE: EUC_2D
NODE_COORD_SECTION
1 6 24
2 20 27
3 25 16
4 9 13
5 11 21
6 27 23
7 17 12
8 5 17
9 17 22
10 11 26
EOF

